#Making a button!

1@texture = res/test_images/Button.png

4@aniTexCoordsS1 = 0, 		0.5, 	0, 		0.5
4@aniTexCoordsT1 = 0, 		0, 		0.5, 	0.5

4@aniTexCoordsS2 = 0.5, 	1, 		0.5, 	1
4@aniTexCoordsT2 = 0.5, 	0.5, 	1, 		1

0@delays = 10, 10, 10, 10, 10, 10
0@frames = 3, 0, 1, 2, 2, 0